% File represents an instance of a Composite Structure problem to be solved by a CP framework
% Created on 2025-03-25 14:05:14.166
T = 46;
n = 9;
m = 12;
edges = [(2, 1),
(4, 5),
(8, 7),
(2, 3),
(6, 5),
(9, 8),
(4, 1),
(4, 7),
(5, 2),
(5, 8),
(6, 3),
(9, 6)];
counts = [|6, 6, 5, 14,
|6, 6, 8, 15,
|6, 6, 8, 8,
|6, 7, 11, 17,
|6, 6, 8, 17,
|7, 6, 8, 17,
|6, 5, 7, 13,
|6, 6, 7, 17,
|8, 10, 10, 18|];
